@set proj_name labeling

&GLOBAL
  PROJECT_NAME ${proj_name}
  RUN_TYPE ENERGY_FORCE
  PRINT_LEVEL MEDIUM
  WALLTIME 860000
&END GLOBAL

&FORCE_EVAL
  METHOD QUICKSTEP
  &PRINT
      &STRESS_TENSOR ON
      &END STRESS_TENSOR
      &FORCES ON
      &END FORCES
  &END PRINT
STRESS_TENSOR ANALYTICAL
  &DFT
    BASIS_SET_FILE_NAME GTH_BASIS_SETS
    POTENTIAL_FILE_NAME GTH_POTENTIALS
    WFN_RESTART_FILE_NAME ./${proj_name}-RESTART.wfn
    CHARGE 0
    UKS F
    &MGRID
      CUTOFF 1100
      REL_CUTOFF 90
    &END MGRID
    &QS
      EPS_DEFAULT 1.0E-13
      EXTRAPOLATION ASPC
      EXTRAPOLATION_ORDER 2
    &END QS
    &SCF
      SCF_GUESS RESTART
      EPS_SCF 3.0E-7
      MAX_SCF 20
      &OUTER_SCF
        EPS_SCF 3.0E-7
        MAX_SCF 50
        #STEP_SIZE 0.03000000
      &END OUTER_SCF
      &OT
        MINIMIZER CG
        PRECONDITIONER FULL_SINGLE_INVERSE
        ENERGY_GAP 0.1
      &END OT
    &END SCF
    &XC
        &XC_FUNCTIONAL BLYP
        &END XC_FUNCTIONAL
        &vdW_POTENTIAL
          DISPERSION_FUNCTIONAL PAIR_POTENTIAL
          &PAIR_POTENTIAL
            TYPE DFTD3
            PARAMETER_FILE_NAME dftd3.dat
            REFERENCE_FUNCTIONAL BLYP
          &END PAIR_POTENTIAL
        &END vdW_POTENTIAL
    &END XC
    &PRINT
    &END PRINT
  &END DFT
  &SUBSYS
    &CELL
      ABC [angstrom]    17.240000    17.240000    17.240000 
    &END CELL
    &COORD
 C     9.161299     5.392431    16.881088
 O     7.856332     5.268660     0.226469
 H     9.937619     5.529837     0.426952
 H     9.227701     6.248683    16.173673
 H     9.334420     4.369371    16.533907
 C     7.776005     5.070438     1.636525
 H     6.726214     5.100513     1.870858
 H     8.273583     5.826732     2.247852
 C     8.318289     3.757014     2.112859
 H     9.354446     3.672276     1.723801
 O     7.582936     2.697357     1.537292
 H     8.271302     3.759883     3.237494
 C     8.168579     1.379247     1.498988
 H     8.962219     1.222365     0.813072
 C     7.001712     0.550609     0.966328
 H     8.451816     1.071955     2.536388
 H     6.503140     1.151662     0.177380
 H     6.235825     0.290921     1.741729
 O     7.491881    16.606450     0.239792
 C     7.202247    15.223415     0.759456
 H     7.454023    15.113402     1.864833
 H     7.881914    14.555837     0.178478
 C     5.873823    14.707770     0.279259
 H     5.822013    14.911913    16.427153
 O     4.626449    15.275484     0.804054
 H     5.808347    13.615011     0.502034
 C     3.484684    14.448894     0.495783
 H     3.428582    14.230382    16.653714
 H     2.595927    14.917934     0.927409
 H     3.581908    13.464291     1.001052
 C     2.757069    13.196633    12.582425
 O     1.808491    12.195075    12.205143
 H     3.072258    13.712783    11.584601
 H     3.582936    12.710574    13.082929
 H     2.165464    13.916749    13.265840
 C     2.320411    10.841817    11.955096
 H     2.574233    10.382507    12.926127
 H     3.104041    10.937825    11.182994
 C     1.285561     9.928910    11.161141
 H     1.625147     8.918601    11.021779
 O     1.190237    10.491335     9.842213
 H     0.342925     9.906990    11.688088
 C    17.111601    10.878383     9.288415
 H    16.530217    11.477206    10.049714
 C    16.278861     9.724167     8.870692
 H    17.285685    11.423227     8.329771
 H    16.841709     9.105687     8.255359
 H    15.427475    10.060946     8.200808
 O    15.790393     9.029900    10.059984
 C    14.303704     8.851587    10.056954
 H    13.964490     8.426871     9.104369
 H    13.922148     9.869901    10.181490
 C    13.865303     7.903398    11.193694
 H    14.490162     7.002562    11.123477
 O    12.538607     7.418971    11.043482
 H    13.995544     8.322119    12.264731
 C    12.119383     6.467251    12.077509
 H    12.973761     5.837079    12.335185
 H    11.381374     5.887217    11.616496
 H    11.707461     6.928251    12.925248
 C    12.255137    16.338456     2.875372
 O    13.540883    17.083616     2.738661
 H    11.510921    17.037292     3.291641
 H    12.321741    15.507052     3.579850
 H    11.921687    15.767065     1.963161
 C    14.311246    17.197441     3.957182
 H    14.407598    16.250953     4.423002
 H    13.817206     0.686643     4.606443
 C    15.686350     0.466297     3.514035
 H    16.016127    17.161272     2.618950
 O    16.673430     0.288858     4.628344
 H    15.617947     1.538359     3.396123
 C     0.820539     0.417160     4.126792
 H     0.842294     1.328753     3.522680
 C     1.284823    16.419149     3.336567
 H     1.480648     0.470779     4.971086
 H     0.725399    15.523227     3.797608
 H     2.350399    16.342821     3.620953
 O     1.207967    16.338143     1.908264
 C     1.598736     0.232222     1.043210
 H     0.922500     1.088540     1.157473
 H     1.481396    17.102443    17.281106
 C     3.111436     0.753508     1.163947
 H     3.521928     0.602861     2.161098
 O     3.007039     2.201690     0.911642
 H     3.701645     0.156150     0.465366
 C     4.288347     2.811463     0.681763
 H     4.174934     3.870851     0.756057
 H     4.614482     2.613861    16.907722
 H     5.103738     2.561368     1.393923
 C     0.183724    10.971471    15.110122
 O     0.542238    11.311244    16.439812
 H    16.523762    11.499266    14.756132
 H    17.326832     9.850153    15.091857
 H     1.000467    11.157936    14.364298
 C     1.194219    12.626651    16.566334
 H     2.146908    12.582258    16.098906
 H     1.281032    12.659667     0.396343
 C     0.439475    13.720380    15.912823
 H     0.948997    14.746055    16.094813
 O    16.323786    13.918050    16.458010
 H     0.307652    13.510209    14.862365
 C    16.122302    14.529381     0.556071
 H    16.421696    13.796703     1.379554
 C    14.647646    14.880797     0.663423
 H    16.661928    15.479749     0.640493
 H    14.363491    15.523269    17.023488
 H    14.421146    15.424249     1.568473
 O    13.755488    13.785079     0.681592
 C    13.132816    13.335750    16.640974
 H    13.259017    12.244577    16.520223
 H    13.698401    13.864302    15.865406
 C    11.699677    13.645301    16.517558
 H    11.493122    14.634732    17.064035
 O    10.902489    12.625615    17.093728
 H    11.396529    13.777508    15.460266
 C    11.073495    12.786066     1.351128
 H    12.108380    12.670495     1.696070
 H    10.502372    12.023028     1.868841
 H    10.704012    13.786285     1.653103
 C     0.459474    15.032826    10.085770
 O     0.381074    15.733489     8.838561
 H    16.827284    15.149027    10.759616
 H     1.401410    15.235490    10.581808
 H     0.455339    13.990193     9.813195
 C     0.720366    17.129673     9.087372
 H     1.545189    17.072082     9.842797
 H    17.088993     0.371796     9.546291
 C     1.030272     0.564882     7.791590
 H    17.352342     0.489533     7.158617
 O     2.099756    17.228740     7.052955
 H     1.447181     1.551305     8.064761
 C     3.405268     0.553105     7.404080
 H     3.462009     1.670366     7.350730
 C     4.390906    17.234954     6.414185
 H     3.705747     0.406846     8.477492
 H     4.233762    16.160847     6.226957
 H     5.417921     0.161418     6.851149
 O     4.339455     0.670139     5.059343
 C     5.593034     0.804555     4.464594
 H     5.355747     1.080863     3.437027
 H     6.092845    17.039529     4.486281
 C     6.572855     1.847219     5.088471
 H     6.816715     1.612627     6.138793
 O     6.286634     3.253052     4.829340
 H     7.505367     1.680027     4.593074
 C     5.172880     3.707194     5.590856
 H     5.126131     3.287649     6.593633
 H     4.193846     3.451461     5.108281
 H     5.235015     4.764351     5.783538
 C     7.776924     8.320582     4.082454
 O     7.912435     9.384100     5.035136
 H     6.770478     8.314034     3.664546
 H     8.008560     7.306723     4.524073
 H     8.552192     8.468560     3.237802
 C     6.908742     9.337285     6.193301
 H     6.967975     8.346293     6.622355
 H     5.969280     9.493762     5.702460
 C     7.156258    10.378479     7.280108
 H     8.188406    10.378901     7.662035
 O     6.149599    10.120708     8.294197
 H     6.945248    11.359965     6.854530
 C     5.518964    11.322500     8.794195
 H     5.069694    11.065402     9.832170
 C     4.231536    11.768114     7.918917
 H     6.179730    12.199718     8.878735
 H     3.314604    11.263880     8.387069
 H     4.290343    11.236691     6.898489
 O     4.197236    13.179963     7.902901
 C     2.873886    13.782715     7.957344
 H     2.946438    14.791689     8.246312
 H     2.238284    13.240303     8.677346
 C     2.134476    13.721740     6.579249
 H     1.767855    14.773376     6.461677
 O     1.112366    12.656242     6.589807
 H     2.897621    13.455313     5.811215
 C     0.474680    12.494580     5.277530
 H     0.301459    13.455836     4.799278
 H    16.763382    11.924277     5.523192
 H     1.106302    11.869130     4.569204
 C    13.665430    12.426143     4.148113
 O    12.383527    11.900053     4.379558
 H    13.645940    12.865627     3.178956
 H    14.490240    11.790358     4.357367
 H    13.766049    13.265832     4.843999
 C    12.340722    10.437069     4.362524
 H    13.313130    10.132877     4.832309
 H    12.409675    10.023186     3.273964
 C    11.108452     9.984217     5.027617
 H    10.311281    10.777316     5.063629
 O    11.515485     9.634350     6.388486
 H    10.630148     9.107676     4.573391
 C    10.388425     9.383349     7.300257
 H    10.122817    10.315102     7.832940
 C    10.698101     8.317678     8.308681
 H     9.574312     9.033911     6.665943
 H     9.767705     8.298426     8.925560
 H    11.590557     8.586114     8.839987
 O    10.859286     6.964934     7.610546
 C    10.732016     6.034764     8.706686
 H     9.745420     6.020549     9.212286
 H    11.397297     6.366664     9.549498
 C    11.168524     4.628202     8.254471
 H    11.167405     3.988474     9.162948
 O    12.542300     4.698278     7.797910
 H    10.488249     4.090185     7.546301
 C    13.587151     5.246915     8.665537
 H    13.649204     4.648113     9.573249
 H    13.336780     6.225509     8.979277
 H    14.549558     5.189736     8.165960
 C    10.051165    10.909446    12.077761
 O    11.469689    10.956535    11.923599
 H     9.580283    11.000938    11.058969
 H     9.654266    11.674385    12.789880
 H     9.733174     9.908203    12.405616
 C    12.210666    11.124311    13.188370
 H    12.174365    10.293470    13.847764
 H    11.742342    11.950040    13.782242
 C    13.685526    11.561204    12.999263
 H    14.238137    11.300893    13.962396
 O    13.756956    13.024077    12.783527
 H    14.166076    11.029386    12.178227
 C    14.910858    13.447035    12.085505
 H    15.539800    12.637336    11.605782
 C    15.830700    14.284712    13.080834
 H    14.513857    14.041212    11.233224
 H    16.901125    13.956436    13.081980
 H    15.302918    14.164857    14.012942
 O    15.675311    15.646982    12.601713
 C    16.595671    16.610829    13.307044
 H     0.390475    16.253873    13.107982
 H    16.422280    16.655943    14.372391
 C    16.402900     0.702003    12.579213
 H    16.199182     0.327335    11.589633
 O     0.401434     1.410005    12.725887
 H    15.543282     1.246953    12.939370
 C     0.469125     2.653433    12.161519
 H     1.421159     3.076592    12.488637
 H    16.877168     3.306192    12.428616
 H     0.539094     2.488601    11.043556
 C    12.708323     9.596559    16.519783
 O    12.257076     8.646426     0.229674
 H    13.829824     9.882580    16.715520
 H    12.108513    10.474045    16.498175
 H    12.686552     9.129992    15.515890
 C    11.143679     9.148111     0.993580
 H    11.408055    10.081919     1.468526
 H    10.961419     8.371483     1.730097
 C     9.831484     9.336218     0.225923
 H     9.991993     9.870417    16.558534
 O     8.974478    10.042917     1.175836
 H     9.355003     8.400451    17.284039
 C     7.582885    10.157586     0.722404
 H     7.562517    10.856354    17.100907
 C     6.744119    10.697366     1.860534
 H     7.100418     9.126374     0.538336
 H     6.889863    10.068922     2.733369
 H     5.687459    10.661925     1.528082
 O     7.120834    12.056276     2.166541
 C     6.989474    12.435350     3.586608
 H     7.416433    13.449582     3.637218
 H     7.524130    11.713683     4.148424
 C     5.500532    12.422103     4.022800
 H     5.063906    11.514128     3.710750
 O     4.670430    13.461447     3.461462
 H     5.453641    12.492544     5.098776
 C     4.754544    14.777872     3.910811
 H     5.758965    15.176269     4.328109
 H     3.959182    14.858709     4.678503
 H     4.459008    15.482414     3.066275
 C     7.400485     5.907398     7.536414
 O     7.150348     4.648493     8.179212
 H     7.415735     6.778775     8.303808
 H     6.619543     6.279087     6.831773
 H     8.288072     5.877175     6.900838
 C     5.982340     4.712046     9.028762
 H     5.060520     4.682831     8.412422
 H     6.042694     5.667480     9.515844
 C     6.023950     3.586164    10.028537
 H     6.951239     3.775200    10.576314
 O     6.000884     2.319696     9.347708
 H     5.230276     3.589307    10.700370
 C     7.036031     1.335159     9.463322
 H     7.088649     0.879605    10.430795
 C     8.427358     1.893598     9.182654
 H     6.852517     0.665225     8.620357
 H     8.362804     2.579892     8.314524
 H     9.099567     1.145708     8.797386
 O     8.789650     2.666404    10.358334
 C     9.558536     1.825403    11.345593
 H     8.997136     0.855539    11.569327
 H     9.314974     2.473808    12.207377
 C    10.999172     1.538151    11.120356
 H    11.302449     0.876963    11.996061
 O    11.835701     2.763039    10.991590
 H    11.173027     0.948967    10.232294
 C    13.277423     2.516997    10.906693
 H    13.827246     3.407426    11.211210
 H    13.600520     2.090485     9.915021
 H    13.523721     1.777399    11.646871
 C    11.562693     1.197630     0.391416
 O    10.885958     1.341277    16.371324
 H    12.538215     0.757627     0.208617
 H    11.072766     0.615227     1.142407
 H    11.701938     2.224711     0.704315
 C    10.641867    17.341951    15.719885
 H    10.541101    16.613480    16.491764
 H    11.459190    17.097734    15.046739
 C     9.351130    17.361242    14.945129
 H     8.511011     0.268904    15.636569
 O     9.067105    16.150744    14.127863
 H     9.377404     0.942693    14.213902
 C     8.736102    14.978144    14.857516
 H     9.604176    14.441157    15.270090
 C     7.859924    14.169714    13.980016
 H     8.234285    15.365205    15.736179
 H     8.355057    13.895995    13.019789
 H     7.027778    14.827834    13.750107
 O     7.422319    12.992305    14.702603
 C     6.311079    12.212334    14.161785
 H     6.811996    11.259785    14.019260
 H     6.106875    12.438338    13.104247
 C     5.162698    12.017172    15.126041
 H     5.632339    11.806006    16.082897
 O     4.394120    10.837669    14.618774
 H     4.485365    12.882335    15.092276
 C     3.490933    10.287234    15.639782
 H     3.139299    11.107890    16.258516
 H     3.920417     9.512798    16.283847
 H     2.649368     9.880713    15.062078
 C     8.508684    15.549318    10.309876
 O     9.808980    15.595486     9.708366
 H     7.784139    15.778486     9.480793
 H     8.309580    16.323999    11.058765
 H     8.262956    14.566932    10.813945
 C    10.907131    15.141948    10.539730
 H    10.724286    15.433456    11.606559
 H    11.658985    15.830648    10.084949
 C    11.271968    13.715886    10.336594
 H    11.840604    13.312623    11.211739
 O    12.139029    13.611877     9.160260
 H    10.397467    13.083076    10.130078
 C    12.577103    12.269991     8.913121
 H    13.359675    11.938045     9.612701
 C    13.313905    12.311468     7.550635
 H    11.743528    11.511101     8.958153
 H    12.805234    13.159449     6.993716
 H    13.352605    11.424692     6.988158
 O    14.722105    12.618700     7.597768
 C    15.147018    13.938586     7.951775
 H    16.156530    13.753072     8.360509
 H    14.549670    14.302486     8.759640
 C    15.201367    14.939725     6.809963
 H    16.136923    15.604935     6.875154
 O    14.004159    15.737033     6.751197
 H    15.237271    14.464161     5.858589
 C    13.970430    16.979815     7.604457
 H    13.758723    16.638878     8.603570
 H    13.301587     0.519385     7.263849
 H    14.914904     0.277275     7.688106
 C    15.453661     3.091583     6.322101
 O    16.547932     3.274601     7.242402
 H    15.035891     2.127429     6.494054
 H    15.938055     3.248894     5.280466
 H    14.681237     3.863096     6.348500
 C    17.223221     4.491654     6.834252
 H    16.421527     5.244791     6.651709
 H     0.467429     4.214968     5.888123
 C     0.956751     4.937557     7.870773
 H     1.516708     4.142798     8.379928
 O     0.315487     5.786967     8.785320
 H     1.758296     5.490794     7.248231
 C     1.065630     6.666046     9.669443
 H     1.833285     7.197086     9.067151
 C     1.815896     5.912249    10.744676
 H     0.408936     7.460525     9.979835
 H     2.286004     4.922014    10.389272
 H     1.173000     5.678340    11.592936
 O     2.870905     6.777772    11.110820
 C     3.796319     6.010773    11.937531
 H     4.102677     5.064975    11.433585
 H     3.246425     5.610126    12.817067
 C     4.924989     6.910412    12.331356
 H     4.547070     7.906479    12.594346
 O     5.977530     7.063335    11.329618
 H     5.492982     6.556568    13.259712
 C     5.945513     8.283509    10.525968
 H     5.581294     9.158714    11.078943
 H     5.189368     8.063551     9.706260
 H     6.967544     8.452959    10.142204
 C     7.738311     8.419959    14.179780
 O     7.783162     6.934825    14.324967
 H     8.725536     8.787476    14.405867
 H     7.040095     8.813557    14.883529
 H     7.462489     8.757408    13.212745
 C     8.718556     6.308854    13.374408
 H     9.750651     6.314060    13.706078
 H     8.708360     6.857590    12.415015
 C     8.301592     4.897287    12.950600
 H     7.299440     4.840413    12.486285
 O     8.337984     3.821730    13.952149
 H     9.127691     4.581056    12.188751
 C     6.981310     3.441391    14.421539
 H     7.231233     2.753035    15.164706
 C     6.162141     2.748413    13.384434
 H     6.461524     4.345090    14.884142
 H     6.790369     2.281187    12.611530
 H     5.478262     3.504836    12.826354
 O     5.245609     1.841075    13.986398
 C     5.725292     0.545872    14.406539
 H     5.904076     0.612646    15.499574
 H     6.640844     0.248648    13.810542
 C     4.708070    16.690891    14.144331
 H     4.960915    15.776428    14.794413
 O     4.580455    16.183911    12.801834
 H     3.807423    17.148274    14.435451
 C     4.000212    17.064798    11.838327
 H     4.586811     0.772577    11.798044
 H     2.921728    17.194362    12.080749
 H     4.087860    16.657630    10.778720
 C     1.044264     4.105038     3.062402
 O    16.926784     4.109454     3.590374
 H     1.492801     5.119308     3.260384
 H     1.091584     3.918300     1.971589
 H     1.511126     3.321239     3.663057
 C    15.955945     4.755409     2.734998
 H    15.537771     4.018532     1.975273
 H    16.465910     5.502700     2.119752
 C    14.841917     5.455228     3.495998
 H    14.139161     5.947686     2.731431
 O    15.305186     6.385055     4.504774
 H    14.293096     4.650388     3.968402
 C    14.347886     7.192269     5.220030
 H    13.809560     7.779911     4.478687
 C    15.099767     8.006867     6.224762
 H    13.511959     6.543906     5.631996
 H    15.669641     7.341232     7.007223
 H    14.367561     8.553225     6.917337
 O    15.882371     9.193733     5.637836
 C    17.067559     8.752436     4.864637
 H    17.204971     7.677869     5.050409
 H     0.717045     9.252551     5.221079
 C    16.794458     8.939967     3.357770
 H    15.957813     8.257411     3.174562
 O     0.737827     8.677448     2.695915
 H    16.426426     9.959922     3.178469
 C     0.578209     8.661260     1.230277
 H     1.580755     8.671669     0.739579
 H    17.246202     9.465868     0.885432
 H    17.169820     7.794731     0.945636
 C     3.787265     7.521530     6.689895
 O     4.251809     7.619533     5.264398
 H     4.720596     7.723303     7.221687
 H     3.471428     6.467988     6.845451
 H     3.069141     8.194877     7.075323
 C     3.363732     6.791549     4.425581
 H     2.265896     6.983608     4.579490
 H     3.510528     5.757365     4.709783
 C     3.547655     7.083307     2.954535
 H     2.808932     6.485091     2.273842
 O     4.963669     6.805974     2.637169
 H     3.316660     8.153525     2.804680
 C     5.395893     7.418726     1.440858
 H     5.109086     8.465782     1.533937
 C     4.768361     6.898780     0.173217
 H     6.538173     7.384104     1.396101
 H     4.995636     5.819230    17.310613
 H     5.299310     7.421333    16.622526
 O     3.353961     7.242037    17.203014
 C     2.768652     6.974805    15.873068
 H     3.573247     7.134975    15.100926
 H     2.003830     7.731985    15.851721
 C     2.100416     5.600799    15.834717
 H     2.352149     4.973885    16.784968
 O     2.348959     4.870125    14.594581
 H     1.016032     5.809835    15.870056
 C     2.930977     3.527214    14.801441
 H     3.950127     3.552373    15.168616
 H     2.861615     2.924585    13.830724
 H     2.296436     2.876911    15.442889
 C    11.111417     5.385404     4.405444
 O    11.532389     4.215741     3.708394
 H    11.481754     6.252197     3.921277
 H    11.472492     5.455850     5.397285
 H    10.040872     5.457115     4.419756
 C    11.950606     3.077019     4.515089
 H    12.646377     3.437549     5.263175
 H    12.437367     2.404102     3.853329
 C    10.733456     2.353761     5.230237
 H    10.610970     2.738744     6.263137
 O    11.067483     0.968774     5.367288
 H     9.784046     2.564198     4.613038
 C    10.463554     0.198552     6.478424
 H    10.814985     0.636044     7.459309
 C    10.814166    15.936216     6.404287
 H     9.410598     0.192822     6.397396
 H    10.702866    15.582548     7.414822
 H    11.892043    15.801292     6.129768
 O     9.931697    15.250916     5.467098
 C     9.831320    13.848528     5.745485
 H    10.838886    13.425699     6.077259
 H     9.527532    13.260038     4.843181
 C     8.885535    13.418824     6.922669
 H     8.800788    12.334492     6.939590
 O     7.492654    13.760526     6.520877
 H     9.207437    13.871529     7.896403
 C     7.128026    15.095001     6.917119
 H     6.454981    15.040208     7.706440
 H     6.520794    15.477358     6.064281
 H     7.975329    15.717489     7.278536
 C    16.528960     3.586448    15.959041
 O    15.779588     2.599451    16.653669
 H    15.885120     4.097097    15.308625
 H    17.374008     3.095633    15.439528
 H    17.102419     4.246724    16.743081
 C    15.404876     1.484817    15.917957
 H    15.347874     0.697527    16.623857
 H    16.102339     1.279926    15.097705
 C    13.984471     1.751338    15.438193
 H    13.556257     0.895928    14.906920
 O    14.030890     2.755667    14.413410
 H    13.402211     2.087531    16.290554
 C    12.926004     3.693379    14.464011
 H    12.924323     4.257452    13.532719
 C    13.052754     4.782123    15.555439
 H    11.969942     3.118397    14.560555
 H    13.327258     4.259380    16.482588
 H    12.107664     5.298260    15.632681
 O    14.120103     5.688030    15.171861
 C    14.530404     6.649823    16.219872
 H    15.021101     6.074623    17.002583
 H    13.613159     7.089000    16.675989
 C    15.266747     7.800273    15.565738
 H    14.793444     8.110903    14.660322
 O    16.637442     7.429969    15.305754
 H    15.319003     8.686889    16.296277
 C    16.708317     6.922784    13.929590
 H    16.630459     7.714407    13.148670
 H    16.066222     6.085588    13.746550
 H     0.523492     6.605865    13.796554
    &END COORD
         &KIND O
             BASIS_SET TZV2P-GTH
             POTENTIAL GTH-BLYP-q6
         &END KIND
         &KIND H
             BASIS_SET TZV2P-GTH
             POTENTIAL GTH-BLYP-q1
         &END KIND
         &KIND C
             BASIS_SET TZV2P-GTH
             POTENTIAL GTH-BLYP-q4
         &END KIND
         &KIND S
             BASIS_SET TZV2P-GTH
             POTENTIAL GTH-BLYP-q6
         &END KIND
         &KIND N
             BASIS_SET TZV2P-GTH
             POTENTIAL GTH-BLYP-q5
         &END KIND
         &KIND F
             BASIS_SET TZV2P-GTH
             POTENTIAL GTH-BLYP-q7
         &END KIND
         &KIND Li
             BASIS_SET TZV2P-GTH
             POTENTIAL GTH-BLYP-q3
         &END KIND
  &END SUBSYS
&END FORCE_EVAL
