@set proj_name labeling

&GLOBAL
  PROJECT_NAME ${proj_name}
  RUN_TYPE ENERGY_FORCE
  PRINT_LEVEL MEDIUM
  WALLTIME 860000
&END GLOBAL

&FORCE_EVAL
  METHOD QUICKSTEP
  &PRINT
&STRESS_TENSOR ON
&END STRESS_TENSOR
      &FORCES ON
      &END FORCES
  &END PRINT
  STRESS_TENSOR ANALYTICAL
  &DFT
    BASIS_SET_FILE_NAME BASIS_MOLOPT
    POTENTIAL_FILE_NAME GTH_POTENTIALS
    WFN_RESTART_FILE_NAME ./${proj_name}-RESTART.wfn
    CHARGE 0
    UKS F
    &MGRID
      CUTOFF 900
      REL_CUTOFF 90
    &END MGRID
    &QS
      EPS_DEFAULT 1.0E-13
      EXTRAPOLATION ASPC
      EXTRAPOLATION_ORDER 2
    &END QS
    &SCF
      SCF_GUESS RESTART
      EPS_SCF 3.0E-7
      MAX_SCF 20
      &OUTER_SCF
        EPS_SCF 3.0E-7
        MAX_SCF 50
        #STEP_SIZE 0.03000000
      &END OUTER_SCF
      &OT
        MINIMIZER CG
        PRECONDITIONER FULL_SINGLE_INVERSE
        ENERGY_GAP 0.1
      &END OT
    &END SCF
    &XC
      &XC_FUNCTIONAL PBE
      &END XC_FUNCTIONAL
      &vdW_POTENTIAL
        DISPERSION_FUNCTIONAL PAIR_POTENTIAL
        &PAIR_POTENTIAL
          TYPE DFTD3
          PARAMETER_FILE_NAME dftd3.dat
          REFERENCE_FUNCTIONAL PBE
        &END PAIR_POTENTIAL
      &END vdW_POTENTIAL
   &END XC
    &PRINT
    &END PRINT
  &END DFT
  &SUBSYS
    &CELL
      A    17.423000     0.000000     0.000000 
      B     0.000000    17.423000     0.000000 
      C     0.000000     0.000000    17.423000 

    &END CELL
    &COORD
 C    11.342776     5.051567     0.613313
 O     9.970254     5.376728     0.977354
 H    11.851538     4.372961     1.320693
 H    11.855950     6.063125     0.631502
 H    11.364521     4.620656    17.045234
 C     9.063933     4.289523     0.488025
 H     9.431955     3.335266     0.904963
 H     9.054222     4.382765    16.798542
 C     7.687657     4.560630     1.113509
 H     7.865366     4.278569     2.144306
 O     6.579335     3.690497     0.620522
 H     7.506786     5.660910     0.923764
 C     7.109794     2.332879     0.671578
 H     7.787786     2.169753    17.204044
 C     6.037503     1.238935     0.619379
 H     7.804412     2.103436     1.525314
 H     5.469856     1.463212    17.119556
 H     5.334712     1.102547     1.441643
 O     6.730591    17.393843     0.360532
 C     6.013352    16.220455     0.871846
 H     5.355135    16.523894     1.714992
 H     6.811073    15.606218     1.199163
 C     5.164306    15.585400    17.228070
 H     5.528500    15.702479    16.201742
 O     3.868789    16.217201    17.382728
 H     5.013788    14.505072    17.406717
 C     2.772063    15.892716    16.546711
 H     2.986134    16.304979    15.545959
 H     1.859964    16.415006    16.931353
 H     2.593836    14.780844    16.388869
 C     2.268994    13.871577    13.675216
 O     1.629495    13.399805    12.558629
 H     3.402080    13.870483    13.597042
 H     2.078053    13.243197    14.590029
 H     2.035164    14.980095    13.723447
 C     2.193910    12.257727    11.866168
 H     2.939374    11.801599    12.462782
 H     2.759965    12.759058    10.970229
 C     1.095791    11.464865    11.260551
 H     1.387904    10.379932    10.951198
 O     0.715351    12.192255    10.106032
 H     0.211769    11.301980    11.944551
 C    16.697308    12.129112     9.861963
 H    16.182113    12.421605    10.788569
 C    16.206263    10.817983     9.295853
 H    16.556768    12.884053     9.070773
 H    16.996957    10.456447     8.559848
 H    15.283300    11.071181     8.686460
 O    15.947996     9.849073    10.372496
 C    14.790505     9.022574    10.160724
 H    14.810626     8.553913     9.207986
 H    13.860804     9.609266    10.276263
 C    14.999452     7.880637    11.186705
 H    16.007098     7.490281    11.130072
 O    13.977069     6.924157    10.944878
 H    14.908692     8.215651    12.207176
 C    13.382689     6.533018    12.196383
 H    14.127262     6.071604    12.888631
 H    12.734368     5.736451    11.923785
 H    12.773578     7.330756    12.742778
 C    12.254360    16.961320     2.842712
 O    13.573361     0.132974     3.052042
 H    11.757700    16.601411     3.786303
 H    12.421370    16.116851     2.168195
 H    11.611189     0.254283     2.367527
 C    14.384049    16.748912     3.955911
 H    14.733476    15.871698     3.466463
 H    13.809789    16.558797     4.915254
 C    15.650423    17.474811     4.277318
 H    16.065623     0.441508     3.286807
 O    16.518159    16.561622     4.933847
 H    15.471165     0.866908     5.016566
 C     0.481954    16.981093     5.037908
 H     0.670984     0.549152     5.384354
 C     1.248683    16.689347     3.748415
 H     0.884548    16.241599     5.801259
 H     1.038006    15.620801     3.469586
 H     2.267626    16.975658     3.829858
 O     0.691429    17.311972     2.559196
 C     1.113730     1.276108     2.383263
 H     1.568783     1.733751     3.242320
 H     0.177298     1.879199     2.232051
 C     2.119116     1.363666     1.260475
 H     2.845634     0.615180     1.394952
 O     2.656210     2.677745     1.017390
 H     1.572861     1.148527     0.344674
 C     3.438544     3.176349     2.197045
 H     3.982901     2.320430     2.659286
 H     2.803286     3.611262     2.926911
 H     4.101524     3.952252     1.854973
 C    17.404405    10.258793    14.481078
 O    16.473247    10.744278    15.437237
 H     0.518137     9.353406    14.810746
 H     0.746181    11.002448    14.278272
 H    16.954554    10.040617    13.488065
 C    17.038902    11.122605    16.713173
 H     0.590346    10.565109    16.835091
 H    16.404736    10.796269     0.140868
 C    17.460154    12.583277    16.709312
 H     0.775758    12.719282    17.457814
 O    16.460995    13.564613    16.543790
 H     0.669263    12.575089    15.738958
 C    16.141626    14.018832     0.510274
 H    15.855788    13.161811     1.149302
 C    15.074930    15.084377     0.491677
 H    17.063329    14.397261     0.899609
 H    15.481196    15.689855    17.049891
 H    15.201039    15.660822     1.416312
 O    13.718730    14.670387     0.350067
 C    13.473897    13.872196    16.572588
 H    14.024496    12.942297    16.653642
 H    13.994238    14.366245    15.690786
 C    12.012416    13.612011    16.355493
 H    11.542600    14.588678    16.543806
 O    11.614867    12.520809    17.206223
 H    11.744386    13.283606    15.346220
 C    11.221460    13.139394     1.046195
 H    12.035204    13.764762     1.439008
 H    11.161315    12.391600     1.847663
 H    10.259317    13.743962     1.076847
 C     1.057377    16.747992     9.322438
 O     1.765010    17.286191     8.204390
 H     0.718319     0.128027     9.975798
 H     1.559740    15.985588     9.912249
 H     0.144936    16.231083     8.880394
 C     2.468990     1.092736     8.363320
 H     3.577149     0.886487     8.843375
 H     2.074716     1.830576     9.088366
 C     2.751136     1.698847     6.978607
 H     1.793402     2.136140     6.669094
 O     3.218570     0.622972     6.163098
 H     3.481842     2.452233     7.147062
 C     4.435584     0.064329     6.425613
 H     5.143375     0.779052     6.865825
 C     4.967014    16.984712     5.080419
 H     4.468977    16.728409     7.239855
 H     4.295803    16.211389     4.598863
 H     5.897559    16.385517     5.323215
 O     5.289770     0.547957     4.110187
 C     6.416361     1.436443     4.338319
 H     6.661061     1.903774     3.358869
 H     7.240667     0.816387     4.625628
 C     6.148247     2.591147     5.295577
 H     5.440479     3.312270     4.857211
 O     7.451398     3.230666     5.344339
 H     5.850266     2.390626     6.334976
 C     7.388528     4.430096     6.134078
 H     6.542981     5.055176     5.953216
 H     8.308772     5.040582     5.972901
 H     7.380492     4.100590     7.204248
 C     8.230679     7.645112     4.147367
 O     7.958411     8.050291     5.522792
 H     8.489883     8.458817     3.508825
 H     7.366380     7.037561     3.809671
 H     9.212514     7.020713     4.147013
 C     6.683164     8.804609     5.630640
 H     5.899972     8.194563     5.139333
 H     6.897093     9.763765     5.087986
 C     6.445640     8.997492     7.081939
 H     6.233505     7.956352     7.509007
 O     5.236762     9.794398     7.198202
 H     7.286115     9.567054     7.662394
 C     4.884590    10.334566     8.473330
 H     4.657843     9.506964     9.164177
 C     3.747904    11.251990     8.300553
 H     5.712260    10.901965     8.911031
 H     3.289473    11.370307     9.304651
 H     2.915722    10.834193     7.648578
 O     4.242645    12.545182     7.904938
 C     3.215913    13.657304     7.779348
 H     3.738123    14.569921     7.942656
 H     2.379698    13.585430     8.521763
 C     2.489068    13.752920     6.455051
 H     2.116629    14.813819     6.366034
 O     1.394958    12.857224     6.570481
 H     3.154239    13.531426     5.642102
 C     0.557039    12.841900     5.391619
 H     0.160576    13.847583     5.084865
 H    17.112860    12.212206     5.731526
 H     1.065920    12.345702     4.560545
 C    14.341231    12.998947     3.960285
 O    13.275578    12.109222     4.281783
 H    14.785229    12.810023     2.989032
 H    15.065063    12.902364     4.808875
 H    13.902688    14.006329     3.939326
 C    13.799091    10.799164     4.430970
 H    14.512397    10.533999     5.214775
 H    14.341949    10.641228     3.480717
 C    12.604072     9.849635     4.459987
 H    11.830657    10.193495     3.764869
 O    12.085311     9.878051     5.772515
 H    12.964352     8.838780     4.177992
 C    11.046067     8.934816     6.008046
 H    10.156259     9.186430     5.423912
 C    10.809318     8.832272     7.455573
 H    11.474738     8.060234     5.563580
 H     9.830314     8.410881     7.576247
 H    10.543769     9.793943     7.867113
 O    11.797995     8.329748     8.333676
 C    11.433831     7.085193     8.945437
 H    10.504824     7.190827     9.531880
 H    12.250988     6.840301     9.695746
 C    11.066324     5.830146     8.069785
 H    10.724228     5.100918     8.825759
 O    12.174003     5.360396     7.344314
 H    10.256281     6.082531     7.370916
 C    13.343855     5.196811     8.101432
 H    13.108342     5.034430     9.157296
 H    14.053286     6.032793     8.004054
 H    13.850632     4.313648     7.674744
 C    10.561548     9.550890    11.682499
 O    11.398290    10.726146    11.800036
 H    11.234861     8.691774    11.571741
 H     9.807056     9.625864    10.878403
 H     9.969615     9.457063    12.597972
 C    11.975286    10.785271    13.135999
 H    12.126228     9.839884    13.602803
 H    11.231033    11.312933    13.790350
 C    13.244988    11.572626    12.976487
 H    13.842722    11.509106    13.939975
 O    12.812345    12.974418    12.971225
 H    13.903164    11.230151    12.159192
 C    13.476384    13.816739    12.006967
 H    13.433146    13.567493    10.880869
 C    14.925461    13.934803    12.309138
 H    12.933057    14.733199    12.133006
 H    15.482357    14.296152    11.411018
 H    15.373292    12.938891    12.454189
 O    15.144978    14.707518    13.552085
 C    16.355044    15.356884    13.626181
 H    17.122115    14.821622    13.095500
 H    16.688421    15.458110    14.670203
 C    16.096201    16.809234    12.978689
 H    15.532496    16.707670    12.001030
 O    17.397641    17.426162    12.893807
 H    15.428076    17.302372    13.692831
 C    17.330609     1.424342    12.533029
 H     0.925178     1.800324    12.434130
 H    16.786686     1.977254    13.293116
 H    16.883167     1.488094    11.490140
 C    13.642133     9.436854     0.425248
 O    12.656056     8.777619     1.242087
 H    13.195403     9.880051    16.898599
 H    14.403376     8.608653     0.193998
 H    14.020950    10.279254     1.076411
 C    11.351172     9.376179     1.342734
 H    11.562215    10.414754     1.749093
 H    10.847238     8.857560     2.198221
 C    10.451744     9.362640     0.142332
 H    10.627983    10.246769    16.832845
 O     9.048197     9.478845     0.573681
 H    10.545511     8.427926    17.060089
 C     8.636305    10.867544     0.741020
 H     9.219233    11.296717     1.562178
 C     7.120513    10.927076     1.005713
 H     8.849774    11.505663    17.364992
 H     6.814507    10.407121     1.904478
 H     6.599321    10.449512     0.160911
 O     6.811028    12.360401     0.962603
 C     6.557293    12.857700     2.338957
 H     6.904901    13.896413     2.403714
 H     7.145151    12.319424     3.069148
 C     5.171284    12.610025     2.760148
 H     4.842070    11.676770     2.372010
 O     4.218832    13.654894     2.364822
 H     5.074635    12.426732     3.929273
 C     3.004379    13.090349     1.926105
 H     3.163241    12.692846     0.912395
 H     2.268645    13.905773     1.834204
 H     2.636361    12.234757     2.557568
 C     4.947123     5.448650     8.896570
 O     4.502461     4.105105     9.005320
 H     4.227758     6.020070     8.221335
 H     6.029230     5.482492     8.471177
 H     5.007971     5.943460     9.894848
 C     4.989113     3.445033    10.175800
 H     4.536106     2.469904    10.222387
 H     4.816135     4.083884    11.080102
 C     6.473503     3.179607    10.097752
 H     7.062425     4.050416     9.754074
 O     6.656765     2.023950     9.217135
 H     6.813302     2.950593    11.084689
 C     7.854225     1.320792     9.426703
 H     7.889974     0.777268    10.425491
 C     9.217819     2.075279     9.476774
 H     8.000156     0.511728     8.613251
 H     9.223289     2.903204     8.703704
 H     9.981546     1.349649     9.163976
 O     9.572151     2.655018    10.736276
 C    10.474308     1.926693    11.590736
 H    10.054420     0.935147    11.680257
 H    10.529551     2.489473    12.530068
 C    11.911670     1.793676    11.047240
 H    12.310438     0.958107    11.529518
 O    12.602528     3.028116    11.197017
 H    11.704414     1.627082     9.979581
 C    14.043753     2.833989    11.150666
 H    14.546212     3.577033    11.821362
 H    14.338343     2.845316    10.104566
 H    14.315058     1.850569    11.545332
 C    10.469041     0.577508    17.063528
 O    10.557829     0.717407    15.617854
 H    11.062678    17.191512    17.450480
 H     9.456714     0.358883    17.449923
 H    10.751336     1.510431     0.139585
 C    10.598546    16.955441    14.820090
 H    11.442558    16.293149    15.169710
 H    10.685367    17.267006    13.778382
 C     9.317341    16.092803    15.141727
 H     9.310326    15.876565    16.174752
 O     9.326010    15.026046    14.245388
 H     8.462818    16.764974    15.040197
 C     8.713545    13.860192    14.756126
 H     9.345038    13.007626    15.136179
 C     7.987099    13.308790    13.558938
 H     8.002391    14.170806    15.574717
 H     8.703651    12.870358    12.802636
 H     7.273741    14.075148    13.205128
 O     7.142246    12.143713    13.881401
 C     5.958428    12.445566    14.699679
 H     5.483747    13.375289    14.325319
 H     6.278635    12.621529    15.728028
 C     5.009528    11.247727    14.527724
 H     4.483251    11.535986    13.644174
 O     3.983138    11.324860    15.529467
 H     5.472772    10.261337    14.416094
 C     3.778106    10.176846    16.332363
 H     3.754949     9.286041    15.715715
 H     2.832960    10.196677    16.794870
 H     4.429309    10.032683    17.179939
 C     7.326026    15.043593     9.460157
 O     8.629192    15.528664     9.513104
 H     6.896016    15.317404     8.505195
 H     6.668800    15.380471    10.300325
 H     7.270715    13.954427     9.521954
 C     9.433550    14.867150    10.507762
 H     8.897274    14.968969    11.496964
 H    10.336268    15.469687    10.593658
 C     9.931302    13.445060    10.207860
 H    10.462195    13.085656    11.118525
 O    10.939568    13.463962     9.237840
 H     9.100968    12.750940    10.026435
 C    11.503233    12.262862     8.896246
 H    11.853730    11.728973     9.787043
 C    12.625584    12.499767     7.942169
 H    10.758587    11.636737     8.423014
 H    12.328123    13.180083     7.185230
 H    13.030439    11.616424     7.418407
 O    13.802175    13.013016     8.517610
 C    13.902108    14.414991     8.629222
 H    14.793233    14.637830     9.312826
 H    12.955313    14.688657     9.182852
 C    14.051917    15.169042     7.318219
 H    15.071222    15.504757     7.106987
 O    13.154513    16.316864     7.144206
 H    13.880794    14.431422     6.494144
 C    13.740587     0.090221     7.544762
 H    14.641711     0.290731     7.062299
 H    13.789863     0.157583     8.650748
 H    13.119143     0.940354     7.182021
 C    16.716260     2.486495     7.452236
 O     0.215789     3.216804     8.195537
 H    17.106564     1.483716     7.205232
 H    16.610871     2.998116     6.459689
 H    15.734161     2.391020     7.963716
 C    17.218637     4.576453     8.351464
 H    16.402328     4.700950     9.121083
 H    16.720366     4.924851     7.424375
 C     0.954212     5.425871     8.778819
 H     1.597669     4.828226     9.480873
 O     0.325524     6.691252     9.356540
 H     1.606162     5.793477     7.941829
 C     1.200455     7.732445     9.810547
 H     1.885309     8.087112     9.022338
 C     1.964809     7.384825    11.083943
 H     0.545688     8.625631     9.928906
 H     2.087727     6.350254    11.190800
 H     1.495739     7.681704    11.993586
 O     3.281487     7.951722    11.039619
 C     4.019955     7.611587    12.151879
 H     4.163183     6.485060    12.268196
 H     3.561127     8.000666    13.086333
 C     5.412560     8.187493    12.045370
 H     5.404386     9.307076    12.081242
 O     6.139712     7.692216    10.867412
 H     5.920229     7.914959    12.916695
 C     7.547182     7.717546    11.145735
 H     8.051862     7.933988    10.181884
 H     7.831136     6.758988    11.553489
 H     7.836664     8.526464    11.879077
 C     8.134142     8.093691    14.840978
 O     7.704390     6.869644    14.360326
 H     8.588963     8.072036    15.843809
 H     7.276556     8.748478    14.830761
 H     8.833150     8.646819    14.113857
 C     8.703997     5.820074    14.138955
 H     9.421350     5.698889    15.057118
 H     9.336798     6.092919    13.284158
 C     7.995210     4.569280    13.779740
 H     7.225861     4.815129    13.016556
 O     7.310742     3.988488    14.955530
 H     8.558462     3.723602    13.371667
 C     6.432415     3.047434    14.566843
 H     5.622363     3.049948    15.275670
 C     7.008102     1.677695    14.375331
 H     5.946684     3.310609    13.597421
 H     7.479341     1.335747    15.323908
 H     7.794012     1.673280    13.645562
 O     5.984388     0.744518    14.078368
 C     6.412833    17.055441    13.260391
 H     6.981704    16.380234    13.962757
 H     7.100852    17.377560    12.508931
 C     5.159902    16.371781    12.680366
 H     5.490991    15.372842    12.273156
 O     4.535727    17.065112    11.633933
 H     4.538716    16.242057    13.519537
 C     3.713505     0.686980    12.081781
 H     4.226617     1.634795    12.387861
 H     3.115914     0.313341    12.927256
 H     3.031480     0.960986    11.301912
 C    17.199362     4.783942     1.927645
 O    15.880317     5.416959     1.844280
 H     0.237546     5.261307     2.819453
 H     0.244346     4.969718     0.964710
 H    17.203913     3.719664     2.006285
 C    14.702760     4.745923     2.470214
 H    14.538966     3.741199     1.980923
 H    13.771669     5.269470     2.229829
 C    14.986815     4.386692     3.925903
 H    14.057141     3.928155     4.297401
 O    15.430498     5.436455     4.799076
 H    15.707458     3.539349     3.971992
 C    14.462566     6.437689     5.132737
 H    13.949389     6.756743     4.211873
 C    15.208551     7.479847     5.967794
 H    13.769400     5.982591     5.856177
 H    15.927600     6.929616     6.589375
 H    14.460683     8.066342     6.618301
 O    15.831868     8.608808     5.276701
 C    16.874412     8.245997     4.387948
 H    16.628467     7.449913     3.716730
 H     0.361297     7.900994     4.902173
 C    17.219023     9.468029     3.595791
 H    16.470795     9.817649     2.855650
 O     1.028214     9.249012     2.854907
 H    17.398159    10.354850     4.226251
 C     0.856756     8.663805     1.565823
 H     1.301091     9.382101     0.858159
 H    17.194032     8.474514     1.286195
 H     1.328662     7.624615     1.472329
 C     2.746952     8.126167     6.269984
 O     3.646903     7.034137     6.079001
 H     2.886815     8.829907     5.427948
 H     3.097063     8.513026     7.226322
 H     1.637317     7.942238     6.170979
 C     3.198794     6.101367     5.127898
 H     2.112757     5.847325     5.266879
 H     3.698283     5.160616     5.254245
 C     3.217180     6.687476     3.701358
 H     2.532334     6.022879     3.048691
 O     4.601199     6.729466     3.226911
 H     2.775410     7.707510     3.657688
 C     4.990568     7.728186     2.293609
 H     4.209547     8.599544     2.487765
 C     4.881077     7.186282     0.835385
 H     5.981911     8.150568     2.507937
 H     5.202114     6.134381     0.843278
 H     5.652374     7.795487     0.250168
 O     3.585461     7.362223     0.289919
 C     3.701249     6.975593    16.320777
 H     4.484852     7.558989    15.823025
 H     2.720578     7.263903    15.901133
 C     3.639320     5.428491    16.096915
 H     4.542131     4.939474    16.507083
 O     3.484352     5.164988    14.682800
 H     2.784274     5.046614    16.700237
 C     2.741624     3.937144    14.477179
 H     3.303865     2.985540    14.794285
 H     2.454133     3.911003    13.433593
 H     1.784280     3.796309    15.063174
 C    10.722145     4.744946     3.964254
 O    11.339974     3.595049     3.454534
 H    10.493134     5.417167     3.151317
 H    11.377644     5.172684     4.755135
 H     9.715041     4.494172     4.309795
 C    11.607299     2.600004     4.503221
 H    12.146022     3.144133     5.314961
 H    12.273087     1.821367     4.199448
 C    10.370185     1.905955     5.100652
 H    10.294086     2.352214     6.116134
 O    10.673397     0.531068     5.247716
 H     9.446705     2.055212     4.541292
 C     9.766603    17.352139     6.229904
 H    10.046027     0.286127     7.220934
 C    10.029585    15.850982     6.288592
 H     8.747744     0.130932     5.972128
 H     9.697202    15.420445     7.252068
 H    11.060623    15.745133     6.200738
 O     9.351324    15.230341     5.209166
 C     9.975038    13.966960     4.772126
 H    11.040224    13.969386     5.106496
 H     9.810634    13.853043     3.711119
 C     9.282470    12.802105     5.544787
 H     9.861592    11.891194     5.259443
 O     7.921299    12.524064     5.214160
 H     9.426874    12.854753     6.667699
 C     6.947241    13.432410     5.786969
 H     6.054598    12.820559     6.079968
 H     6.691588    14.219092     5.049878
 H     7.406804    14.132964     6.498211
 C    16.926118     2.555477    16.436833
 O    16.004323     2.256931     0.069489
 H    17.072820     1.616604    15.837092
 H     0.486695     2.838352    16.917711
 H    16.527202     3.410741    15.718223
 C    15.039519     1.264461    17.135954
 H    14.732406     0.906998     0.675899
 H    15.539940     0.490880    16.574746
 C    13.821793     1.827195    16.374411
 H    12.986642     1.059357    16.356240
 O    14.153413     2.183234    15.014070
 H    13.517449     2.592013    17.028973
 C    13.316402     3.285573    14.575466
 H    13.546105     3.629946    13.549046
 C    13.350956     4.655863    15.405764
 H    12.277563     2.870841    14.567456
 H    13.362727     4.339165    16.436409
 H    12.417315     5.249311    15.186534
 O    14.490220     5.433136    14.929224
 C    14.553668     6.637157    15.756743
 H    14.515730     6.448311    16.816855
 H    13.705962     7.302276    15.580538
 C    15.718355     7.448601    15.286248
 H    15.687616     7.449994    14.161400
 O    16.993208     7.114487    15.931725
 H    15.637745     8.491761    15.536845
 C     0.267402     6.084252    15.265340
 H    17.255156     5.055717    15.339776
 H     1.194865     5.993979    15.819309
 H     0.531256     6.302857    14.207152
 
    &END COORD
    &KIND O
        BASIS_SET TZVP-MOLOPT-GTH
        POTENTIAL GTH-PBE-q6
    &END KIND
    &KIND H
        BASIS_SET DZVP-MOLOPT-SR-GTH
        POTENTIAL GTH-PBE-q1
    &END KIND
    &KIND C
        BASIS_SET TZVP-MOLOPT-GTH
        POTENTIAL GTH-PBE-q4
    &END KIND
    &KIND N
        BASIS_SET TZVP-MOLOPT-GTH
        POTENTIAL GTH-PBE-q5
    &END KIND
    &KIND S
        BASIS_SET TZVP-MOLOPT-GTH
        POTENTIAL GTH-PBE-q6
    &END KIND
    &KIND F
        BASIS_SET TZVP-MOLOPT-GTH
        POTENTIAL GTH-PBE-q7
    &END KIND
    &KIND Li
        BASIS_SET DZVP-MOLOPT-SR-GTH
        POTENTIAL GTH-PBE-q3
    &END KIND
  &END SUBSYS
&END FORCE_EVAL
